HUN,8,6,203
3,14,1,20,5,27,0,15,2,3,4,25
3,21,2,21,0,5,5,15,4,20,1,16
5,14,1,10,2,5,4,11,0,18,3,21
0,13,2,28,1,7,5,23,4,12,3,30
1,1,5,26,2,2,4,28,0,4,3,21
5,17,3,26,1,18,2,19,0,20,4,14
5,25,0,5,3,20,1,12,4,29,2,6
4,26,3,20,1,2,2,15,0,8,5,27
